data/CVRPLIB/Vrp-Set-XML100/instances/XML100_3316_03.vrp
NAME : XML100_3316_03
COMMENT : Generated by Queiroga, Sadykov, Uchoa, and Vidal (2021)
TYPE : CVRP
DIMENSION : 101
EDGE_WEIGHT_TYPE : EUC_2D
CAPACITY : 37
NODE_COORD_SECTION
1    0    0   
2    276  617 
3    712  876 
4    438  563 
5    339  291 
6    221  753 
7    135  93  
8    769  830 
9    598  883 
10   251  209 
11   1000 752 
12   886  256 
13   874  749 
14   10   485 
15   740  860 
16   253  152 
17   257  75  
18   852  718 
19   155  512 
20   842  842 
21   981  60  
22   656  802 
23   228  247 
24   888  653 
25   179  470 
26   598  586 
27   757  795 
28   350  34  
29   806  660 
30   313  192 
31   803  753 
32   144  529 
33   221  928 
34   163  7   
35   823  391 
36   715  845 
37   446  44  
38   656  941 
39   17   627 
40   989  658 
41   227  519 
42   996  927 
43   428  636 
44   946  619 
45   74   636 
46   760  852 
47   107  711 
48   831  420 
49   155  242 
50   70   640 
51   263  444 
52   88   704 
53   299  42  
54   356  486 
55   276  88  
56   482  235 
57   559  605 
58   291  240 
59   860  999 
60   676  746 
61   261  615 
62   607  615 
63   173  731 
64   710  372 
65   572  781 
66   143  816 
67   706  806 
68   329  801 
69   740  627 
70   168  267 
71   185  647 
72   743  764 
73   100  578 
74   60   664 
75   45   482 
76   182  632 
77   974  370 
78   367  552 
79   908  574 
80   560  504 
81   319  134 
82   135  157 
83   953  612 
84   843  41  
85   709  850 
86   294  355 
87   250  542 
88   25   686 
89   536  811 
90   121  387 
91   749  420 
92   107  572 
93   191  111 
94   903  464 
95   775  61  
96   686  997 
97   111  579 
98   283  109 
99   710  973 
100  459  146 
101  193  191 
DEMAND_SECTION
1    0   
2    1   
3    1   
4    1   
5    1   
6    1   
7    1   
8    1   
9    1   
10   1   
11   1   
12   1   
13   1   
14   1   
15   1   
16   1   
17   1   
18   1   
19   1   
20   1   
21   1   
22   1   
23   1   
24   1   
25   1   
26   1   
27   1   
28   1   
29   1   
30   1   
31   1   
32   1   
33   1   
34   1   
35   1   
36   1   
37   1   
38   1   
39   1   
40   1   
41   1   
42   1   
43   1   
44   1   
45   1   
46   1   
47   1   
48   1   
49   1   
50   1   
51   1   
52   1   
53   1   
54   1   
55   1   
56   1   
57   1   
58   1   
59   1   
60   1   
61   1   
62   1   
63   1   
64   1   
65   1   
66   1   
67   1   
68   1   
69   1   
70   1   
71   1   
72   1   
73   1   
74   1   
75   1   
76   1   
77   1   
78   1   
79   1   
80   1   
81   1   
82   1   
83   1   
84   1   
85   1   
86   1   
87   1   
88   1   
89   1   
90   1   
91   1   
92   1   
93   1   
94   1   
95   1   
96   1   
97   1   
98   1   
99   1   
100  1   
101  1   
DEPOT_SECTION
1
-1
EOF
