data/CVRPLIB/Vrp-Set-XML100/solutions/XML100_3316_03.sol
Route #1: 13 74 18 31 91 96 72 44 49 38 87 73 51 46 65 32 67 5 62 70 75 60 1 86 40 24 89 69 48
Route #2: 6 92 15 29 57 4 79 56 25 61 59 21 66 35 84 2 14 45 7 26 71 30 19 12 17 28 68 47 34 90 63 55 99 80 97 54 16
Route #3: 81 100 9 22 85 50 53 77 3 42 64 88 8 37 95 98 58 41 10 39 82 43 23 78 93 76 11 20 83 94 36 27 52 33
Cost 9494
